\ENCODING=ISO-8859-1
\Problem name: IloCplex

Minimize
 obj: y
Subject To
 c1:  x1 - r1 <= 6
 c2:  r1 + y1 - y <= -3
 c3:  x2 <= 7
 c4:  - y + y2 <= -3
 c5:  x3 - r3 <= 8
 c6:  - y + r3 + y3 <= -1
 c7:  x4 + 2 r4 <= 7
 c8:  - y - 2 r4 + y4 <= -5
 c9:  x5 - r5 <= 6
 c10: - y + r5 + y5 <= -3
 c11: x6 - r6 <= 6
 c12: - y + r6 + y6 <= -3
 c13: x7 - 3 r7 <= 4
 c14: - y + 3 r7 + y7 <= -3
 c15: x1 - r1 - x2 - 28 p12 - 28 q12 <= -4
 c16: r1 + y1 - y2 - 28 p12 + 28 q12 <= 25
 c17: x1 - x2 - 28 p12 + 28 q12 - 6 r2 >= -25
 c18: y1 - y2 - 28 p12 - 28 q12 >= -53
 c19: x1 - r1 - x3 - 28 p13 - 28 q13 <= -4
 c20: r1 + y1 - y3 - 28 p13 + 28 q13 <= 25
 c21: x1 - x3 - 3 r3 - 28 p13 + 28 q13 >= -26
 c22: y1 - r3 - y3 - 28 p13 - 28 q13 >= -55
 c23: x1 - r1 - x4 - 28 p14 - 28 q14 <= -4
 c24: r1 + y1 - y4 - 28 p14 + 28 q14 <= 25
 c25: x1 - x4 - 8 r4 - 28 p14 + 28 q14 >= -25
 c26: y1 + 2 r4 - y4 - 28 p14 - 28 q14 >= -51
 c27: x1 - r1 - x5 - 28 p15 - 28 q15 <= -4
 c28: r1 + y1 - y5 - 28 p15 + 28 q15 <= 25
 c29: x1 - x5 - 7 r5 - 28 p15 + 28 q15 >= -24
 c30: y1 - r5 - y5 - 28 p15 - 28 q15 >= -53
 c31: x1 - r1 - x6 - 28 p16 - 28 q16 <= -4
 c32: r1 + y1 - y6 - 28 p16 + 28 q16 <= 25
 c33: x1 - x6 - 7 r6 - 28 p16 + 28 q16 >= -24
 c34: y1 - r6 - y6 - 28 p16 - 28 q16 >= -53
 c35: x1 - r1 - x7 - 28 p17 - 28 q17 <= -4
 c36: r1 + y1 - y7 - 28 p17 + 28 q17 <= 25
 c37: x1 - x7 - 9 r7 - 28 p17 + 28 q17 >= -22
 c38: y1 - 3 r7 - y7 - 28 p17 - 28 q17 >= -53
 c39: x2 - x3 - 28 p23 - 28 q23 <= -3
 c40: y2 - y3 - 28 p23 + 28 q23 <= 25
 c41: x2 - x3 - 3 r3 - 28 p23 + 28 q23 >= -26
 c42: y2 - r3 - y3 - 28 p23 - 28 q23 >= -55
 c43: x2 - x4 - 28 p24 - 28 q24 <= -3
 c44: y2 - y4 - 28 p24 + 28 q24 <= 25
 c45: x2 - x4 - 8 r4 - 28 p24 + 28 q24 >= -25
 c46: y2 + 2 r4 - y4 - 28 p24 - 28 q24 >= -51
 c47: x2 - x5 - 28 p25 - 28 q25 <= -3
 c48: y2 - y5 - 28 p25 + 28 q25 <= 25
 c49: x2 - x5 - 7 r5 - 28 p25 + 28 q25 >= -24
 c50: y2 - r5 - y5 - 28 p25 - 28 q25 >= -53
 c51: x2 - x6 - 28 p26 - 28 q26 <= -3
 c52: y2 - y6 - 28 p26 + 28 q26 <= 25
 c53: x2 - x6 - 7 r6 - 28 p26 + 28 q26 >= -24
 c54: y2 - r6 - y6 - 28 p26 - 28 q26 >= -53
 c55: x2 - x7 - 28 p27 - 28 q27 <= -3
 c56: y2 - y7 - 28 p27 + 28 q27 <= 25
 c57: x2 - x7 - 9 r7 - 28 p27 + 28 q27 >= -22
 c58: y2 - 3 r7 - y7 - 28 p27 - 28 q27 >= -53
 c59: x3 - r3 - x4 - 28 p34 - 28 q34 <= -2
 c60: r3 + y3 - y4 - 28 p34 + 28 q34 <= 27
 c61: x3 - x4 - 8 r4 - 28 p34 + 28 q34 >= -25
 c62: y3 + 2 r4 - y4 - 28 p34 - 28 q34 >= -51
 c63: x3 - r3 - x5 - 28 p35 - 28 q35 <= -2
 c64: r3 + y3 - y5 - 28 p35 + 28 q35 <= 27
 c65: x3 - x5 - 7 r5 - 28 p35 + 28 q35 >= -24
 c66: y3 - r5 - y5 - 28 p35 - 28 q35 >= -53
 c67: x3 - r3 - x6 - 28 p36 - 28 q36 <= -2
 c68: r3 + y3 - y6 - 28 p36 + 28 q36 <= 27
 c69: x3 - x6 - 7 r6 - 28 p36 + 28 q36 >= -24
 c70: y3 - r6 - y6 - 28 p36 - 28 q36 >= -53
 c71: x3 - r3 - x7 - 28 p37 - 28 q37 <= -2
 c72: r3 + y3 - y7 - 28 p37 + 28 q37 <= 27
 c73: x3 - x7 - 9 r7 - 28 p37 + 28 q37 >= -22
 c74: y3 - 3 r7 - y7 - 28 p37 - 28 q37 >= -53
 c75: x4 + 2 r4 - x5 - 28 p45 - 28 q45 <= -3
 c76: - 2 r4 + y4 - y5 - 28 p45 + 28 q45 <= 23
 c77: x4 - x5 - 7 r5 - 28 p45 + 28 q45 >= -24
 c78: y4 - r5 - y5 - 28 p45 - 28 q45 >= -53
 c79: x4 + 2 r4 - x6 - 28 p46 - 28 q46 <= -3
 c80: - 2 r4 + y4 - y6 - 28 p46 + 28 q46 <= 23
 c81: x4 - x6 - 7 r6 - 28 p46 + 28 q46 >= -24
 c82: y4 - r6 - y6 - 28 p46 - 28 q46 >= -53
 c83: x4 + 2 r4 - x7 - 28 p47 - 28 q47 <= -3
 c84: - 2 r4 + y4 - y7 - 28 p47 + 28 q47 <= 23
 c85: x4 - x7 - 9 r7 - 28 p47 + 28 q47 >= -22
 c86: y4 - 3 r7 - y7 - 28 p47 - 28 q47 >= -53
 c87: x5 - r5 - x6 - 28 p56 - 28 q56 <= -4
 c88: r5 + y5 - y6 - 28 p56 + 28 q56 <= 25
 c89: x5 - x6 - 7 r6 - 28 p56 + 28 q56 >= -24
 c90: y5 - r6 - y6 - 28 p56 - 28 q56 >= -53
 c91: x5 - r5 - x7 - 28 p57 - 28 q57 <= -4
 c92: r5 + y5 - y7 - 28 p57 + 28 q57 <= 25
 c93: x5 - x7 - 9 r7 - 28 p57 + 28 q57 >= -22
 c94: y5 - 3 r7 - y7 - 28 p57 - 28 q57 >= -53
 c95: x6 - r6 - x7 - 28 p67 - 28 q67 <= -4
 c96: r6 + y6 - y7 - 28 p67 + 28 q67 <= 25
 c97: x6 - x7 - 9 r7 - 28 p67 + 28 q67 >= -22
 c98: y6 - 3 r7 - y7 - 28 p67 - 28 q67 >= -53
Bounds
 0 <= r1 <= 1
 0 <= r3 <= 1
 0 <= r4 <= 1
 0 <= r5 <= 1
 0 <= r6 <= 1
      x7 = 0
      r7 = 0
      y7 = 0
 0 <= p12 <= 1
 0 <= q12 <= 1
 0 <= r2 <= 1
 0 <= p13 <= 1
 0 <= q13 <= 1
 0 <= p14 <= 1
 0 <= q14 <= 1
 0 <= p15 <= 1
 0 <= q15 <= 1
 0 <= p16 <= 1
 0 <= q16 <= 1
 0 <= p17 <= 1
 0 <= q17 <= 1
 0 <= p23 <= 1
 0 <= q23 <= 1
 0 <= p24 <= 1
 0 <= q24 <= 1
 0 <= p25 <= 1
 0 <= q25 <= 1
 0 <= p26 <= 1
 0 <= q26 <= 1
 0 <= p27 <= 1
 0 <= q27 <= 1
 0 <= p34 <= 1
 0 <= q34 <= 1
 0 <= p35 <= 1
 0 <= q35 <= 1
 0 <= p36 <= 1
 0 <= q36 <= 1
 0 <= p37 <= 1
 0 <= q37 <= 1
 0 <= p45 <= 1
 0 <= q45 <= 1
 0 <= p46 <= 1
 0 <= q46 <= 1
 0 <= p47 <= 1
 0 <= q47 <= 1
 0 <= p56 <= 1
 0 <= q56 <= 1
 0 <= p57 <= 1
 0 <= q57 <= 1
 0 <= p67 <= 1
 0 <= q67 <= 1
Binaries
 r1  r3  r4  r5  r6  r7  p12  q12  r2  p13  q13  p14  q14  p15  q15  p16  q16 
 p17  q17  p23  q23  p24  q24  p25  q25  p26  q26  p27  q27  p34  q34  p35 
 q35  p36  q36  p37  q37  p45  q45  p46  q46  p47  q47  p56  q56  p57  q57 
 p67  q67 
End
